(set-logic QF_LIA)
(set-info :ran/ran2.smt2)
(set-info :smt-lib-version 2.0)
(declare-fun x1 () Int)
(declare-fun x2 () Int)
(declare-fun x3 () Int)
(declare-fun x4 () Int)
(assert (<= (+ (* (- 4) x1) (* 7 x2) (* (- 8) x3) (* (- 7) x4) ) (- 249)))
(assert (<= (+ (* (- 4) x1) (* 9 x2) (* (- 9) x3) (* (- 2) x4) ) (- 76)))
(assert (<= (+ (* 1 x1) (* (- 2) x2) (* 4 x3) (* 7 x4) ) (- 597)))
(assert (<= (+ (* (- 8) x1) (* (- 3) x2) (* (- 5) x3) (* 4 x4) ) 69))
(assert (<= (+ (* (- 4) x1) (* 0 x2) (* (- 2) x3) (* 0 x4) ) (- 524)))
(assert (<= (+ (* (- 1) x1) (* (- 4) x2) (* 4 x3) (* 2 x4) ) (- 885)))
(assert (<= (+ (* (- 7) x1) (* 6 x2) (* 1 x3) (* (- 4) x4) ) (- 180)))
(assert (<= (+ (* (- 3) x1) (* 2 x2) (* 6 x3) (* (- 4) x4) ) (- 632)))
(assert (<= (+ (* 1 x1) (* 0 x2) (* 0 x3) (* 0 x4) ) 891))
(assert (<= (+ (* (- 1) x1) (* 0 x2) (* 0 x3) (* 0 x4) ) 891))
(assert (<= (+ (* 0 x1) (* 1 x2) (* 0 x3) (* 0 x4) ) 891))
(assert (<= (+ (* 0 x1) (* (- 1) x2) (* 0 x3) (* 0 x4) ) 891))
(assert (<= (+ (* 0 x1) (* 0 x2) (* 1 x3) (* 0 x4) ) 891))
(assert (<= (+ (* 0 x1) (* 0 x2) (* (- 1) x3) (* 0 x4) ) 891))
(assert (<= (+ (* 0 x1) (* 0 x2) (* 0 x3) (* 1 x4) ) 891))
(assert (<= (+ (* 0 x1) (* 0 x2) (* 0 x3) (* (- 1) x4) ) 891))
